c Created with the Wolfram Language : www.wolfram.com
c 
p edge 100 965
e 1 4
e 3 6
e 4 7
e 2 8
e 1 9
e 2 9
e 5 9
e 4 10
e 6 10
e 1 11
e 3 11
e 7 11
e 4 12
e 6 12
e 9 12
e 10 12
e 1 13
e 3 13
e 10 13
e 11 13
e 12 14
e 6 15
e 7 15
e 11 15
e 14 15
e 4 16
e 11 16
e 14 16
e 7 17
e 12 17
e 14 17
e 1 18
e 6 18
e 17 18
e 1 19
e 3 19
e 6 19
e 10 19
e 11 19
e 17 19
e 3 20
e 12 20
e 13 20
e 14 20
e 2 21
e 5 21
e 10 21
e 18 21
e 19 21
e 1 22
e 4 22
e 9 22
e 18 22
e 8 23
e 15 23
e 16 23
e 22 23
e 6 24
e 7 24
e 9 24
e 3 25
e 12 25
e 18 25
e 23 25
e 24 25
e 4 26
e 5 26
e 16 26
e 25 26
e 1 27
e 2 27
e 10 27
e 11 27
e 13 27
e 17 27
e 18 27
e 19 27
e 3 28
e 11 28
e 14 28
e 19 28
e 25 28
e 10 29
e 13 29
e 1 30
e 13 30
e 15 30
e 20 30
e 3 31
e 9 31
e 12 31
e 15 31
e 18 31
e 29 31
e 1 32
e 2 32
e 8 32
e 16 32
e 30 32
e 9 33
e 11 33
e 14 33
e 19 33
e 31 33
e 9 34
e 24 34
e 28 34
e 1 35
e 4 35
e 6 35
e 9 35
e 11 35
e 13 35
e 23 35
e 31 35
e 33 35
e 34 35
e 2 36
e 5 36
e 7 36
e 16 36
e 18 36
e 21 36
e 23 36
e 3 37
e 9 37
e 10 37
e 11 37
e 13 37
e 16 37
e 18 37
e 20 37
e 32 37
e 1 38
e 6 38
e 9 38
e 11 38
e 13 38
e 15 38
e 19 38
e 20 38
e 21 38
e 25 38
e 32 38
e 7 39
e 8 39
e 21 39
e 26 39
e 29 39
e 37 39
e 18 40
e 25 40
e 29 40
e 32 40
e 1 41
e 8 41
e 13 41
e 14 41
e 15 41
e 16 41
e 21 41
e 22 41
e 29 41
e 33 41
e 35 41
e 36 41
e 40 41
e 5 42
e 10 42
e 21 42
e 28 42
e 1 43
e 2 43
e 5 43
e 8 43
e 9 43
e 14 43
e 22 43
e 26 43
e 29 43
e 30 43
e 9 44
e 12 44
e 20 44
e 30 44
e 34 44
e 2 45
e 3 45
e 7 45
e 14 45
e 17 45
e 20 45
e 22 45
e 23 45
e 24 45
e 28 45
e 32 45
e 41 45
e 2 46
e 3 46
e 11 46
e 12 46
e 15 46
e 16 46
e 28 46
e 30 46
e 39 46
e 42 46
e 9 47
e 19 47
e 35 47
e 36 47
e 40 47
e 4 48
e 5 48
e 10 48
e 22 48
e 25 48
e 28 48
e 31 48
e 32 48
e 38 48
e 40 48
e 41 48
e 2 49
e 17 49
e 19 49
e 21 49
e 23 49
e 36 49
e 37 49
e 43 49
e 5 50
e 6 50
e 24 50
e 26 50
e 28 50
e 31 50
e 43 50
e 44 50
e 9 51
e 17 51
e 23 51
e 26 51
e 31 51
e 38 51
e 40 51
e 49 51
e 2 52
e 3 52
e 5 52
e 6 52
e 7 52
e 13 52
e 19 52
e 22 52
e 27 52
e 39 52
e 6 53
e 7 53
e 11 53
e 12 53
e 14 53
e 16 53
e 18 53
e 36 53
e 38 53
e 42 53
e 45 53
e 49 53
e 7 54
e 17 54
e 26 54
e 28 54
e 34 54
e 41 54
e 42 54
e 43 54
e 44 54
e 46 54
e 7 55
e 9 55
e 11 55
e 12 55
e 18 55
e 22 55
e 35 55
e 42 55
e 44 55
e 52 55
e 53 55
e 2 56
e 7 56
e 24 56
e 31 56
e 35 56
e 40 56
e 49 56
e 52 56
e 1 57
e 7 57
e 8 57
e 20 57
e 21 57
e 25 57
e 26 57
e 30 57
e 35 57
e 37 57
e 38 57
e 39 57
e 42 57
e 9 58
e 18 58
e 19 58
e 20 58
e 27 58
e 35 58
e 37 58
e 38 58
e 45 58
e 46 58
e 5 59
e 10 59
e 20 59
e 21 59
e 30 59
e 43 59
e 45 59
e 54 59
e 57 59
e 58 59
e 1 60
e 8 60
e 9 60
e 10 60
e 14 60
e 18 60
e 19 60
e 20 60
e 25 60
e 28 60
e 46 60
e 49 60
e 53 60
e 56 60
e 3 61
e 9 61
e 11 61
e 17 61
e 23 61
e 25 61
e 26 61
e 32 61
e 37 61
e 45 61
e 50 61
e 52 61
e 58 61
e 2 62
e 7 62
e 16 62
e 20 62
e 22 62
e 25 62
e 29 62
e 31 62
e 38 62
e 40 62
e 41 62
e 43 62
e 46 62
e 49 62
e 52 62
e 54 62
e 55 62
e 56 62
e 5 63
e 8 63
e 12 63
e 28 63
e 34 63
e 39 63
e 42 63
e 47 63
e 49 63
e 56 63
e 61 63
e 4 64
e 5 64
e 9 64
e 12 64
e 17 64
e 29 64
e 33 64
e 42 64
e 51 64
e 1 65
e 14 65
e 22 65
e 25 65
e 27 65
e 37 65
e 47 65
e 57 65
e 13 66
e 22 66
e 29 66
e 30 66
e 44 66
e 48 66
e 49 66
e 52 66
e 53 66
e 55 66
e 63 66
e 64 66
e 8 67
e 11 67
e 14 67
e 19 67
e 31 67
e 32 67
e 46 67
e 48 67
e 49 67
e 60 67
e 62 67
e 1 68
e 5 68
e 6 68
e 9 68
e 16 68
e 20 68
e 24 68
e 34 68
e 38 68
e 42 68
e 53 68
e 66 68
e 6 69
e 18 69
e 19 69
e 26 69
e 27 69
e 29 69
e 31 69
e 39 69
e 51 69
e 55 69
e 66 69
e 13 70
e 16 70
e 23 70
e 24 70
e 27 70
e 29 70
e 37 70
e 41 70
e 49 70
e 52 70
e 60 70
e 61 70
e 65 70
e 67 70
e 2 71
e 7 71
e 8 71
e 12 71
e 13 71
e 39 71
e 40 71
e 47 71
e 55 71
e 58 71
e 67 71
e 3 72
e 8 72
e 10 72
e 11 72
e 18 72
e 24 72
e 29 72
e 34 72
e 35 72
e 39 72
e 40 72
e 48 72
e 54 72
e 62 72
e 68 72
e 5 73
e 6 73
e 9 73
e 15 73
e 18 73
e 24 73
e 27 73
e 28 73
e 29 73
e 36 73
e 38 73
e 45 73
e 46 73
e 47 73
e 48 73
e 50 73
e 52 73
e 65 73
e 4 74
e 5 74
e 8 74
e 11 74
e 14 74
e 17 74
e 18 74
e 19 74
e 20 74
e 25 74
e 42 74
e 46 74
e 51 74
e 59 74
e 62 74
e 64 74
e 65 74
e 70 74
e 6 75
e 24 75
e 26 75
e 33 75
e 37 75
e 40 75
e 46 75
e 48 75
e 50 75
e 54 75
e 58 75
e 62 75
e 70 75
e 5 76
e 18 76
e 22 76
e 28 76
e 29 76
e 36 76
e 42 76
e 50 76
e 62 76
e 63 76
e 65 76
e 75 76
e 2 77
e 5 77
e 7 77
e 8 77
e 11 77
e 21 77
e 22 77
e 24 77
e 35 77
e 42 77
e 48 77
e 53 77
e 54 77
e 60 77
e 66 77
e 2 78
e 4 78
e 5 78
e 7 78
e 9 78
e 16 78
e 17 78
e 24 78
e 33 78
e 35 78
e 40 78
e 41 78
e 42 78
e 43 78
e 46 78
e 50 78
e 55 78
e 56 78
e 58 78
e 64 78
e 8 79
e 15 79
e 17 79
e 22 79
e 24 79
e 30 79
e 32 79
e 34 79
e 36 79
e 44 79
e 52 79
e 53 79
e 54 79
e 55 79
e 59 79
e 66 79
e 78 79
e 1 80
e 5 80
e 15 80
e 23 80
e 29 80
e 34 80
e 36 80
e 41 80
e 49 80
e 60 80
e 69 80
e 1 81
e 7 81
e 13 81
e 19 81
e 24 81
e 26 81
e 30 81
e 43 81
e 47 81
e 48 81
e 51 81
e 2 82
e 4 82
e 15 82
e 21 82
e 28 82
e 42 82
e 43 82
e 47 82
e 49 82
e 55 82
e 60 82
e 67 82
e 81 82
e 4 83
e 7 83
e 14 83
e 21 83
e 24 83
e 26 83
e 28 83
e 34 83
e 36 83
e 40 83
e 41 83
e 53 83
e 54 83
e 61 83
e 66 83
e 67 83
e 69 83
e 77 83
e 1 84
e 5 84
e 12 84
e 15 84
e 21 84
e 26 84
e 32 84
e 39 84
e 49 84
e 58 84
e 60 84
e 62 84
e 64 84
e 66 84
e 72 84
e 76 84
e 6 85
e 7 85
e 8 85
e 15 85
e 29 85
e 32 85
e 43 85
e 46 85
e 49 85
e 50 85
e 57 85
e 61 85
e 64 85
e 67 85
e 71 85
e 75 85
e 11 86
e 12 86
e 14 86
e 20 86
e 26 86
e 39 86
e 42 86
e 46 86
e 70 86
e 76 86
e 83 86
e 84 86
e 3 87
e 12 87
e 14 87
e 32 87
e 34 87
e 35 87
e 38 87
e 45 87
e 47 87
e 49 87
e 56 87
e 58 87
e 63 87
e 70 87
e 72 87
e 79 87
e 82 87
e 5 88
e 10 88
e 14 88
e 26 88
e 28 88
e 33 88
e 35 88
e 36 88
e 39 88
e 41 88
e 65 88
e 70 88
e 74 88
e 79 88
e 86 88
e 2 89
e 7 89
e 10 89
e 15 89
e 20 89
e 24 89
e 34 89
e 35 89
e 51 89
e 52 89
e 53 89
e 55 89
e 68 89
e 71 89
e 72 89
e 81 89
e 84 89
e 86 89
e 88 89
e 15 90
e 17 90
e 22 90
e 26 90
e 45 90
e 48 90
e 51 90
e 56 90
e 59 90
e 63 90
e 66 90
e 71 90
e 77 90
e 83 90
e 9 91
e 11 91
e 21 91
e 25 91
e 33 91
e 43 91
e 46 91
e 49 91
e 54 91
e 55 91
e 62 91
e 70 91
e 71 91
e 80 91
e 83 91
e 84 91
e 85 91
e 4 92
e 10 92
e 13 92
e 15 92
e 17 92
e 19 92
e 22 92
e 41 92
e 44 92
e 53 92
e 59 92
e 70 92
e 71 92
e 72 92
e 75 92
e 81 92
e 82 92
e 87 92
e 91 92
e 5 93
e 6 93
e 16 93
e 26 93
e 32 93
e 33 93
e 35 93
e 44 93
e 47 93
e 57 93
e 58 93
e 59 93
e 68 93
e 69 93
e 70 93
e 71 93
e 81 93
e 88 93
e 92 93
e 7 94
e 12 94
e 14 94
e 16 94
e 17 94
e 19 94
e 22 94
e 24 94
e 35 94
e 38 94
e 46 94
e 54 94
e 56 94
e 63 94
e 67 94
e 74 94
e 87 94
e 88 94
e 92 94
e 93 94
e 7 95
e 9 95
e 16 95
e 25 95
e 26 95
e 32 95
e 49 95
e 62 95
e 67 95
e 68 95
e 70 95
e 71 95
e 80 95
e 81 95
e 88 95
e 90 95
e 94 95
e 1 96
e 5 96
e 8 96
e 9 96
e 11 96
e 12 96
e 14 96
e 19 96
e 22 96
e 30 96
e 32 96
e 36 96
e 38 96
e 59 96
e 68 96
e 72 96
e 77 96
e 78 96
e 82 96
e 2 97
e 6 97
e 7 97
e 12 97
e 13 97
e 15 97
e 19 97
e 29 97
e 33 97
e 41 97
e 46 97
e 57 97
e 64 97
e 65 97
e 69 97
e 70 97
e 74 97
e 75 97
e 78 97
e 79 97
e 82 97
e 87 97
e 94 97
e 3 98
e 8 98
e 15 98
e 20 98
e 24 98
e 26 98
e 27 98
e 37 98
e 47 98
e 58 98
e 59 98
e 61 98
e 62 98
e 63 98
e 65 98
e 66 98
e 67 98
e 76 98
e 80 98
e 86 98
e 90 98
e 94 98
e 5 99
e 7 99
e 10 99
e 12 99
e 15 99
e 19 99
e 23 99
e 35 99
e 41 99
e 45 99
e 51 99
e 56 99
e 67 99
e 69 99
e 81 99
e 83 99
e 89 99
e 95 99
e 3 100
e 8 100
e 9 100
e 18 100
e 22 100
e 23 100
e 31 100
e 35 100
e 37 100
e 39 100
e 40 100
e 49 100
e 54 100
e 55 100
e 56 100
e 62 100
e 67 100
e 69 100
e 70 100
e 72 100
e 76 100
e 85 100
e 88 100
e 90 100
e 98 100
